NAME : Instance 13
COMMENT : Comment 13
TYPE : TSP
DIMENSION: 30
EDGE_WEIGHT_TYPE : EUC_2D
NODE_COORD_SECTION
  1 949 1786
  2 1304 1383
  3 1759 1616
  4 240 84
  5 879 1551
  6 1009 1311
  7 664 1987
  8 1001 632
  9 1267 161
  10 332 1475
  11 1121 415
  12 805 191
  13 1602 1810
  14 1238 1275
  15 1204 1694
  16 1664 369
  17 192 1195
  18 388 35
  19 474 400
  20 1917 294
  21 106 1711
  22 101 298
  23 1594 180
  24 1651 573
  25 955 1743
  26 1513 1046
  27 1197 1596
  28 1084 899
  29 149 643
  30 1586 1833
EOF
